10J3M/DAT/10J3MNTX-11.dat
10 3
24.4735 4.9471
24.0192 4.9009
26.0553 5.1044
26.347 5.1329
21.273 4.6123
22.6843 4.7628
25.632 5.0628
34.0462 5.8349
27.1794 5.2134
23.2231 4.819
12.5976