10J3M/SOL/10J3MNTX-11.sol
solution status: optimal solution found
objective value:                     70.3928406415812
x#2#3                              0.0697349779148266 	(obj:0)
x#3#2                                               1 	(obj:0)
x#4#1                                               1 	(obj:0)
x#5#3                                               1 	(obj:0)
x#6#1                               0.303451814391557 	(obj:0)
x#6#3                               0.696548185608443 	(obj:0)
x#7#2                               0.514478275363314 	(obj:0)
x#7#3                               0.485521724636687 	(obj:0)
x#9#1                              0.0473316171472116 	(obj:0)
x#9#2                               0.838877668544062 	(obj:0)
x#9#3                               0.113790714308727 	(obj:0)
x#10#1                                              1 	(obj:0)
z                                    70.3928406415812 	(obj:1)
